data;

param n := 13;

param : E : c :=
1 2 2
1 3 5
2 1 2
2 4 4
2 5 6
2 8 6
3 1 5
3 4 5
3 6 3
3 9 6
4 2 4
4 3 5
4 5 5 
4 7 2
5 2 6
5 4 5
5 7 1
5 8 5
6 3 3
6 9 4
6 7 2
7 4 2
7 5 1
7 6 2
7 9 2
8 2 6
8 5 5
8 10 5
8 11 5
9 6 4
9 7 2
9 3 6
9 12 5
9 10 5
10 9 5
10 8 5
10 12 4
10 11 2
11 8 5
11 10 2
11 13 3 
12 9 5
12 10 4
12 13 4
13 12 4
13 11 3;
end;